c clasp version 2.1.1
c Reading from p02.cnf
c Solving...
s UNSATISFIABLE

c Models        : 0     
c Time          : 9.237s (Solving: 8.85s 1st Model: 0.00s Unsat: 8.85s)
c CPU Time      : 9.220s
c Choices       : 29936
c Conflicts     : 24676
c Restarts      : 2      (Average: 12337.50 Last: 6125)

c Variables     : 71542  (Eliminated: 21577 Frozen:    0)
c Constraints   : 58216  (Binary: 70.5% Ternary: 26.7% Other:  2.8%)
c Lemmas        : 24675  (Binary:  0.8% Ternary:  1.4% Other: 97.8%)
c   Conflict    : 24675  (Average Length: 114.2) 
c   Loop        : 0      (Average Length: 0.0) 
c   Other       : 0      (Average Length: 0.0)
c   Deleted     : 12372 
